99 100
27 31 1
8 8 1
4 32 1
20 29 1
8 7 1
33 20 1
33 29 1
28 8 1
13 10 1
31 31 1
32 11 1
11 2 1
13 1 1
20 16 1
30 31 2
14 7 1
28 23 1
33 27 1
1 15 1
21 32 1
20 25 1
6 26 1
33 8 1
27 25 1
31 3 1
30 21 1
19 27 1
6 18 1
11 1 1
35 34 1
12 18 1
26 2 1
14 18 1
32 2 1
6 10 1
13 3 1
2 23 1
5 21 1
30 26 1
27 12 1
25 33 1
33 15 1
35 2 1
29 12 1
20 7 1
29 29 1
17 29 1
26 1 1
7 24 1
25 12 1
18 32 1
5 20 1
17 33 1
28 30 1
22 19 1
29 20 1
23 29 1
23 19 1
26 10 1
3 31 1
10 22 1
7 1 1
2 35 1
15 27 1
7 30 1
21 6 1
6 33 1
28 26 1
24 14 1
16 7 1
32 23 1
12 24 1
10 18 1
21 23 1
20 2 1
24 31 1
30 25 1
12 16 1
22 11 1
24 29 1
23 32 1
5 27 1
1 35 1
19 15 1
8 11 1
34 8 1
35 35 1
30 32 1
16 18 1
35 23 1
2 20 1
17 30 1
19 12 1
28 10 1
3 9 1
24 4 1
3 2 1
9 25 1
12 32 1
40 40 
40 40 
40 40 
40 40 
40 40 
40 40 
40 40 
40 40 
40 40 
40 40 
40 40 
40 40 
40 40 
40 40 
40 40 
40 40 
40 40 
40 40 
40 40 
40 40 
40 40 
40 40 
40 40 
40 40 
40 40 
40 40 
40 40 
40 40 
40 40 
40 40 
40 40 
40 40 
40 40 
40 40 
40 40 
40 40 
40 40 
40 40 
40 40 
40 40 
40 40 
40 40 
40 40 
40 40 
40 40 
40 40 
40 40 
40 40 
40 40 
40 40 
40 40 
40 40 
40 40 
40 40 
40 40 
40 40 
40 40 
40 40 
40 40 
40 40 
40 40 
40 40 
40 40 
40 40 
40 40 
40 40 
40 40 
40 40 
40 40 
40 40 
40 40 
40 40 
40 40 
40 40 
40 40 
40 40 
40 40 
40 40 
40 40 
40 40 
40 40 
40 40 
40 40 
40 40 
40 40 
40 40 
40 40 
40 40 
40 40 
40 40 
40 40 
40 40 
40 40 
40 40 
40 40 
40 40 
40 40 
40 40 
40 40 
40 40 
